r = [
0,24,3,35,13,12,35,13,12,18,7,4,13,34,13,3,3,16,35,5,30,13,24,9,22,29,0
];
p = [
0,7,29,10,6,1,10,2,1,20,20,22,7,30,29,19,22,29,5,21,14,7,30,7,6,6,0
];
e = [
0,3,4,15,16,9,4,2,17,5,14,20,8,19,12,10,20,2,10,16,5,6,10,11,6,7,0
];
d = [
0,331,339,355,334,330,368,325,351,340,317,332,350,356,336,316,317,343,362,311,342,345,363,340,362,346,369
];
d_bar = [
0,332,342,356,335,331,369,326,352,342,319,334,351,359,339,318,319,346,363,313,343,346,366,341,363,347,369
];
w = [
0,3,1.333333333,15,16,9,4,2,17,2.5,7,10,8,6.333333333,4,5,10,0.666666667,10,8,5,6,3.333333333,11,6,7,0
];
